(set-logic QF_S)
(declare-fun var0 () String)
(declare-fun var1 () String)
(declare-fun var2 () String)
(declare-fun var3 () String)
(declare-fun var4 () String)
(declare-fun var5 () String)
(declare-fun var6 () String)
(declare-fun var7 () String)
(declare-fun var8 () String)
(declare-fun var9 () String)
(declare-fun var10 () String)
(declare-fun var11 () String)
(declare-fun var12 () String)
(declare-fun var13 () String)
(declare-fun var14 () String)
(declare-fun var15 () String)
(declare-fun var16 () String)
(declare-fun var17 () String)
(declare-fun var18 () String)
(declare-fun var19 () String)
(declare-fun var20 () String)
(declare-fun var21 () String)
(declare-fun var22 () String)
(declare-fun var23 () String)
(declare-fun var24 () String)
(declare-fun var25 () String)
(declare-fun var26 () String)
(declare-fun var27 () String)
(declare-fun var28 () String)
(declare-fun var29 () String)
(declare-fun var30 () String)
(declare-fun var31 () String)
(declare-fun var32 () String)
(declare-fun var33 () String)
(declare-fun var34 () String)
(declare-fun var35 () String)
(declare-fun var36 () String)
(declare-fun var37 () String)
(declare-fun var38 () String)
(declare-fun var39 () String)
(declare-fun var40 () String)
(declare-fun var41 () String)
(declare-fun var42 () String)
(declare-fun var43 () String)
(declare-fun var44 () String)
(declare-fun var45 () String)
(declare-fun var46 () String)
(declare-fun var47 () String)
(declare-fun var48 () String)
(declare-fun var49 () String)
(declare-fun var50 () String)
(declare-fun var51 () String)
(declare-fun var52 () String)
(declare-fun var53 () String)
(declare-fun var54 () String)
(declare-fun var55 () String)
(declare-fun var56 () String)
(declare-fun var57 () String)
(declare-fun var58 () String)
(declare-fun var59 () String)
(declare-fun var60 () String)
(assert (= var0 (Concat var1 var2)))
(assert (= var2 (Concat var3 var4)))
(assert (= var4 (Concat var5 var6)))
(assert (= var6 (Concat var7 var8)))
(assert (= var8 (Concat var9 var10)))
(assert (= var10 (Concat var11 var12)))
(assert (= var12 (Concat var13 var14)))
(assert (= var14 (Concat var15 var16)))
(assert (= var16 (Concat var17 var18)))
(assert (= var18 (Concat var19 var20)))
(assert (= var20 (Concat var21 var22)))
(assert (= var22 (Concat var23 var24)))
(assert (= var24 (Concat var25 var26)))
(assert (= var26 (Concat var27 var28)))
(assert (= var28 (Concat var29 var30)))
(assert (= var30 (Concat var31 var32)))
(assert (= var32 (Concat var33 var34)))
(assert (= var34 (Concat var35 var36)))
(assert (= var36 (Concat var37 var38)))
(assert (= var38 (Concat var39 var40)))
(assert (= var40 (Concat var41 var42)))
(assert (= var42 (Concat var43 var44)))
(assert (= var44 (Concat var45 var46)))
(assert (= var46 (Concat var47 var48)))
(assert (= var48 (Concat var49 var50)))
(assert (= var50 (Concat var51 var52)))
(assert (= var52 (Concat var53 var54)))
(assert (= var54 (Concat var55 var56)))
(assert (= var56 (Concat var57 var58)))
(assert (= var58 (Concat var59 var60)))
(assert (= var0 "solution"))
(assert (= "@" (CharAt var46 892)))
(assert (= "l" (CharAt var59 357)))
(assert (= "S" (CharAt var57 914)))
(assert (= "~" (CharAt var2 47)))
(assert (= "5" (CharAt var19 975)))
(assert (= "h" (CharAt var43 963)))
(assert (= "u" (CharAt var6 1)))
(assert (= "<" (CharAt var52 902)))
(assert (= "<" (CharAt var59 235)))
(assert (= "B" (CharAt var50 379)))
(assert (= "7" (CharAt var31 755)))
(assert (= ">" (CharAt var25 551)))
(assert (= "4" (CharAt var23 592)))
(assert (= "i" (CharAt var10 902)))
(assert (= "?" (CharAt var58 332)))
(assert (= "q" (CharAt var42 659)))
(assert (= "+" (CharAt var27 916)))
(assert (= "O" (CharAt var17 92)))
(assert (= "4" (CharAt var37 358)))
(assert (= "(" (CharAt var14 603)))
(assert (= "=" (CharAt var25 980)))
(assert (= "o" (CharAt var35 127)))
(assert (= "'" (CharAt var5 228)))
(assert (= "7" (CharAt var25 941)))
(assert (= "t" (CharAt var35 486)))
(assert (= "v" (CharAt var49 858)))
(assert (= "+" (CharAt var46 506)))
(assert (= "K" (CharAt var58 842)))
(assert (= "S" (CharAt var53 67)))
(assert (= "Y" (CharAt var36 60)))
(assert (= "$" (CharAt var7 590)))
(assert (= "*" (CharAt var7 776)))
(assert (= "z" (CharAt var6 544)))
(assert (= "1" (CharAt var35 452)))
(assert (= "o" (CharAt var24 910)))
(assert (= "D" (CharAt var57 803)))
(assert (= "z" (CharAt var7 80)))
(assert (= "r" (CharAt var11 887)))
(assert (= "G" (CharAt var44 48)))
(assert (= "\"" (CharAt var12 638)))
(assert (= "L" (CharAt var19 242)))
(assert (= "4" (CharAt var48 770)))
(assert (= "7" (CharAt var50 760)))
(assert (= "&" (CharAt var41 549)))
(assert (= "X" (CharAt var26 425)))
(assert (= "/" (CharAt var26 766)))
(assert (= "\"" (CharAt var24 522)))
(assert (= "j" (CharAt var11 680)))
(assert (= "Z" (CharAt var12 936)))
(assert (= "m" (CharAt var29 294)))
(assert (= "P" (CharAt var2 9)))
(assert (= "/" (CharAt var7 115)))
(assert (= "H" (CharAt var40 185)))
(assert (= "l" (CharAt var8 864)))
(assert (= "s" (CharAt var60 887)))
(assert (= "2" (CharAt var36 103)))
(assert (= "z" (CharAt var45 176)))
(assert (= "&" (CharAt var50 897)))
(assert (= "z" (CharAt var21 167)))
(assert (= "d" (CharAt var41 685)))
(assert (= "H" (CharAt var38 170)))
(assert (= "W" (CharAt var23 7)))
(assert (= "G" (CharAt var17 530)))
(assert (= "3" (CharAt var5 111)))
(assert (= "_" (CharAt var41 584)))
(assert (= "a" (CharAt var58 670)))
(assert (= "}" (CharAt var51 274)))
(assert (= "*" (CharAt var39 382)))
(assert (= "q" (CharAt var5 723)))
(assert (= "G" (CharAt var58 97)))
(assert (= "9" (CharAt var56 168)))
(assert (= "b" (CharAt var50 900)))
(assert (= "t" (CharAt var58 653)))
(assert (= "I" (CharAt var43 93)))
(assert (= "&" (CharAt var42 842)))
(assert (= "O" (CharAt var23 32)))
(assert (= "7" (CharAt var1 673)))
(assert (= "d" (CharAt var33 375)))
(assert (= "D" (CharAt var60 901)))
(assert (= "4" (CharAt var44 425)))
(assert (= "x" (CharAt var14 75)))
(assert (= "^" (CharAt var52 583)))
(assert (= "T" (CharAt var43 361)))
(assert (= "%" (CharAt var35 821)))
(assert (= "I" (CharAt var14 423)))
(assert (= "/" (CharAt var14 455)))
(assert (= "6" (CharAt var0 103)))
(assert (= "!" (CharAt var57 423)))
(assert (= "T" (CharAt var51 114)))
(assert (= "s" (CharAt var6 256)))
(assert (= "^" (CharAt var55 471)))
(assert (= "G" (CharAt var52 431)))
(assert (= "g" (CharAt var39 721)))
(assert (= "i" (CharAt var35 711)))
(assert (= "g" (CharAt var45 63)))
(assert (= "`" (CharAt var3 788)))
(assert (= "q" (CharAt var21 37)))
(assert (= "p" (CharAt var24 830)))
(assert (= "Y" (CharAt var33 281)))
(assert (= "D" (CharAt var31 59)))
(assert (= "V" (CharAt var31 714)))
(assert (= "L" (CharAt var45 937)))
(assert (= "Q" (CharAt var54 486)))
(assert (= "N" (CharAt var0 818)))
(assert (= "}" (CharAt var20 517)))
(assert (= "d" (CharAt var18 174)))
(assert (= "p" (CharAt var54 795)))
(assert (= "g" (CharAt var27 379)))
(assert (= "o" (CharAt var25 378)))
(assert (= "A" (CharAt var4 863)))
(assert (= "r" (CharAt var32 270)))
(assert (= "0" (CharAt var26 530)))
(assert (= ">" (CharAt var53 487)))
(assert (= "B" (CharAt var3 947)))
(assert (= "p" (CharAt var59 748)))
(assert (= "E" (CharAt var21 159)))
(assert (= "$" (CharAt var8 800)))
(assert (= "o" (CharAt var42 957)))
(assert (= "-" (CharAt var55 818)))
(assert (= "^" (CharAt var52 344)))
(assert (= "a" (CharAt var52 686)))
(assert (= "_" (CharAt var56 72)))
(assert (= ">" (CharAt var13 298)))
(assert (= "o" (CharAt var30 993)))
(assert (= "$" (CharAt var47 308)))
(assert (= "2" (CharAt var8 667)))
(assert (= "A" (CharAt var2 779)))
(assert (= "M" (CharAt var43 66)))
(assert (= "^" (CharAt var3 448)))
(assert (= "F" (CharAt var33 270)))
(assert (= "t" (CharAt var40 557)))
(assert (= "a" (CharAt var44 549)))
(assert (= "." (CharAt var2 971)))
(assert (= "N" (CharAt var24 723)))
(assert (= "l" (CharAt var4 536)))
(assert (= "5" (CharAt var47 822)))
(assert (= "g" (CharAt var12 618)))
(assert (= "f" (CharAt var19 73)))
(assert (= "1" (CharAt var5 881)))
(assert (= "g" (CharAt var18 538)))
(assert (= "7" (CharAt var17 196)))
(assert (= "Z" (CharAt var48 87)))
(assert (= "s" (CharAt var30 930)))
(assert (= "P" (CharAt var14 778)))
(assert (= "H" (CharAt var7 481)))
(assert (= "\\" (CharAt var51 611)))
(assert (= "R" (CharAt var44 385)))
(assert (= "P" (CharAt var4 902)))
(assert (= "c" (CharAt var8 521)))
(assert (= "W" (CharAt var39 78)))
(assert (= "(" (CharAt var23 538)))
(assert (= "6" (CharAt var24 500)))
(assert (= ")" (CharAt var34 273)))
(assert (= "p" (CharAt var39 374)))
(assert (= "R" (CharAt var23 358)))
(assert (= "i" (CharAt var1 754)))
(assert (= "L" (CharAt var55 348)))
(assert (= "," (CharAt var10 67)))
(assert (= "d" (CharAt var58 305)))
(assert (= "`" (CharAt var34 181)))
(assert (= "\"" (CharAt var56 747)))
(assert (= "a" (CharAt var8 317)))
(assert (= "w" (CharAt var56 477)))
(assert (= "l" (CharAt var38 162)))
(assert (= "R" (CharAt var28 375)))
(assert (= "<" (CharAt var54 701)))
(assert (= ">" (CharAt var29 710)))
(assert (= "#" (CharAt var45 190)))
(assert (= "8" (CharAt var18 86)))
(assert (= "p" (CharAt var15 187)))
(assert (= "," (CharAt var13 615)))
(assert (= "a" (CharAt var38 680)))
(assert (= "l" (CharAt var44 299)))
(assert (= "?" (CharAt var27 410)))
(assert (= "C" (CharAt var27 756)))
(assert (= "j" (CharAt var40 393)))
(assert (= "a" (CharAt var38 311)))
(assert (= "s" (CharAt var4 613)))
(assert (= "+" (CharAt var46 710)))
(assert (= "1" (CharAt var52 530)))
(assert (= "$" (CharAt var26 519)))
(assert (= "l" (CharAt var19 531)))
(assert (= "j" (CharAt var32 387)))
(assert (= "Y" (CharAt var51 445)))
(assert (= "^" (CharAt var18 339)))
(assert (= "E" (CharAt var32 536)))
(assert (= "'" (CharAt var45 837)))
(assert (= "x" (CharAt var53 356)))
(assert (= ":" (CharAt var5 511)))
(assert (= "~" (CharAt var0 375)))
(assert (= "D" (CharAt var60 442)))
(assert (= ":" (CharAt var47 744)))
(assert (= "}" (CharAt var4 766)))
(assert (= "F" (CharAt var2 288)))
(assert (= "(" (CharAt var18 536)))
(assert (= "R" (CharAt var53 634)))
(assert (= "i" (CharAt var21 715)))
(assert (= "\\" (CharAt var36 387)))
(assert (= "n" (CharAt var39 705)))
(assert (= "A" (CharAt var7 184)))
(assert (= "u" (CharAt var17 388)))
(assert (= "!" (CharAt var4 844)))
(assert (= "Y" (CharAt var10 120)))
(assert (= "l" (CharAt var44 351)))
(assert (= "s" (CharAt var60 56)))
(assert (= "u" (CharAt var0 231)))
(assert (= "d" (CharAt var46 65)))
(assert (= "p" (CharAt var0 554)))
(assert (= "7" (CharAt var6 427)))
(assert (= "-" (CharAt var0 108)))
(assert (= "l" (CharAt var28 510)))
(assert (= "@" (CharAt var21 828)))
(assert (= "e" (CharAt var26 138)))
(assert (= "D" (CharAt var60 837)))
(assert (= "A" (CharAt var33 672)))
(assert (= "f" (CharAt var13 243)))
(assert (= "j" (CharAt var20 681)))
(assert (= "q" (CharAt var29 856)))
(assert (= "e" (CharAt var32 13)))
(assert (= ">" (CharAt var43 765)))
(assert (= "3" (CharAt var48 91)))
(assert (= "J" (CharAt var2 612)))
(assert (= "W" (CharAt var43 98)))
(assert (= "J" (CharAt var8 679)))
(assert (= "T" (CharAt var4 188)))
(assert (= "b" (CharAt var49 700)))
(assert (= "h" (CharAt var21 870)))
(assert (= "p" (CharAt var11 176)))
(assert (= "6" (CharAt var29 620)))
(assert (= ")" (CharAt var32 424)))
(assert (= "'" (CharAt var45 186)))
(assert (= "K" (CharAt var39 794)))
(assert (= "f" (CharAt var41 407)))
(assert (= "b" (CharAt var9 37)))
(assert (= "Z" (CharAt var5 958)))
(assert (= "b" (CharAt var30 942)))
(assert (= "2" (CharAt var15 725)))
(assert (= "U" (CharAt var20 193)))
(assert (= "e" (CharAt var43 445)))
(assert (= "e" (CharAt var25 175)))
(assert (= "i" (CharAt var35 65)))
(assert (= "`" (CharAt var49 315)))
(assert (= "/" (CharAt var34 308)))
(assert (= "B" (CharAt var9 820)))
(assert (= "|" (CharAt var25 784)))
(assert (= "m" (CharAt var6 373)))
(assert (= "k" (CharAt var0 765)))
(assert (= "l" (CharAt var52 295)))
(assert (= "v" (CharAt var20 176)))
(assert (= "I" (CharAt var17 994)))
(assert (= "u" (CharAt var5 500)))
(assert (= "w" (CharAt var15 782)))
(assert (= "j" (CharAt var39 813)))
(assert (= "L" (CharAt var27 803)))
(assert (= "m" (CharAt var21 548)))
(assert (= "k" (CharAt var21 646)))
(assert (= "T" (CharAt var3 854)))
(assert (= "&" (CharAt var15 382)))
(assert (= "j" (CharAt var39 499)))
(assert (= "^" (CharAt var8 839)))
(assert (= "6" (CharAt var38 484)))
(assert (= "P" (CharAt var9 29)))
(assert (= "," (CharAt var49 222)))
(assert (= "7" (CharAt var21 506)))
(assert (= "X" (CharAt var12 725)))
(assert (= "G" (CharAt var60 158)))
(assert (= "3" (CharAt var21 757)))
(assert (= "Q" (CharAt var57 935)))
(assert (= "I" (CharAt var59 331)))
(assert (= "d" (CharAt var13 968)))
(assert (= "V" (CharAt var6 508)))
(assert (= "^" (CharAt var8 87)))
(assert (= "?" (CharAt var16 595)))
(assert (= "&" (CharAt var24 477)))
(assert (= "D" (CharAt var3 869)))
(assert (= "R" (CharAt var33 732)))
(assert (= "Z" (CharAt var16 93)))
(assert (= "1" (CharAt var18 472)))
(assert (= "q" (CharAt var59 632)))
(assert (= "8" (CharAt var8 522)))
(assert (= "g" (CharAt var30 695)))
(assert (= "k" (CharAt var39 565)))
(assert (= "b" (CharAt var58 186)))
(assert (= "}" (CharAt var13 918)))
(assert (= "f" (CharAt var47 151)))
(assert (= "Q" (CharAt var12 666)))
(assert (= "g" (CharAt var24 697)))
(assert (= "^" (CharAt var0 436)))
(assert (= "}" (CharAt var5 180)))
(assert (= "$" (CharAt var13 426)))
(assert (= "0" (CharAt var55 13)))
(assert (= "E" (CharAt var53 603)))
(assert (= "G" (CharAt var31 771)))
(assert (= "P" (CharAt var57 370)))
(assert (= "U" (CharAt var5 524)))
(assert (= "q" (CharAt var8 220)))
(assert (= "M" (CharAt var44 636)))
(assert (= "a" (CharAt var6 786)))
(assert (= "]" (CharAt var2 134)))
(assert (= "2" (CharAt var59 684)))
(assert (= "@" (CharAt var38 540)))
(assert (= "/" (CharAt var4 568)))
(assert (= "P" (CharAt var38 44)))
(assert (= "p" (CharAt var41 864)))
(assert (= "B" (CharAt var60 448)))
(assert (= "]" (CharAt var14 829)))
(assert (= "a" (CharAt var6 131)))
(assert (= "g" (CharAt var41 243)))
(assert (= "b" (CharAt var26 398)))
(assert (= "I" (CharAt var22 875)))
(assert (= "W" (CharAt var5 604)))
(assert (= "]" (CharAt var0 224)))
(assert (= "A" (CharAt var5 838)))
(assert (= "|" (CharAt var33 357)))
(assert (= "j" (CharAt var16 715)))
(assert (= "." (CharAt var59 238)))
(assert (= "+" (CharAt var44 380)))
(assert (= "k" (CharAt var31 239)))
(assert (= "Q" (CharAt var57 426)))
(assert (= "j" (CharAt var36 16)))
(assert (= ";" (CharAt var0 342)))
(assert (= "-" (CharAt var17 561)))
(assert (= "Z" (CharAt var59 33)))
(assert (= "}" (CharAt var50 316)))
(assert (= "+" (CharAt var51 326)))
(assert (= "-" (CharAt var6 618)))
(assert (= "!" (CharAt var52 25)))
(assert (= "z" (CharAt var15 564)))
(assert (= "v" (CharAt var19 976)))
(assert (= "0" (CharAt var19 24)))
(assert (= "&" (CharAt var31 522)))
(assert (= ">" (CharAt var9 806)))
(assert (= "X" (CharAt var15 726)))
(assert (= "i" (CharAt var12 758)))
(assert (= "%" (CharAt var4 171)))
(assert (= "$" (CharAt var38 754)))
(assert (= "n" (CharAt var4 353)))
(assert (= "=" (CharAt var10 413)))
(assert (= "s" (CharAt var13 347)))
(assert (= "l" (CharAt var24 948)))
(assert (= "O" (CharAt var17 933)))
(assert (= "x" (CharAt var25 844)))
(assert (= "R" (CharAt var5 442)))
(assert (= "Q" (CharAt var54 823)))
(assert (= "@" (CharAt var42 956)))
(assert (= "S" (CharAt var29 366)))
(assert (= ":" (CharAt var24 306)))
(assert (= "\\" (CharAt var29 261)))
(assert (= "C" (CharAt var48 756)))
(assert (= "}" (CharAt var45 697)))
(assert (= "T" (CharAt var25 493)))
(assert (= "u" (CharAt var11 699)))
(assert (= "_" (CharAt var3 85)))
(assert (= "a" (CharAt var6 683)))
(assert (= "b" (CharAt var59 178)))
(assert (= "`" (CharAt var16 656)))
(assert (= "T" (CharAt var12 378)))
(assert (= "9" (CharAt var60 313)))
(assert (= "v" (CharAt var60 160)))
(assert (= "3" (CharAt var0 180)))
(assert (= "3" (CharAt var57 120)))
(assert (= "," (CharAt var13 557)))
(assert (= "[" (CharAt var24 947)))
(assert (= "j" (CharAt var55 587)))
(assert (= "u" (CharAt var35 911)))
(assert (= "/" (CharAt var42 914)))
(assert (= "_" (CharAt var29 427)))
(assert (= "4" (CharAt var2 977)))
(assert (= "8" (CharAt var39 788)))
(assert (= "X" (CharAt var59 370)))
(assert (= "Q" (CharAt var59 489)))
(assert (= "R" (CharAt var53 744)))
(assert (= "." (CharAt var12 871)))
(assert (= "G" (CharAt var45 504)))
(assert (= "n" (CharAt var20 889)))
(assert (= "*" (CharAt var52 606)))
(assert (= "h" (CharAt var39 707)))
(assert (= "H" (CharAt var35 823)))
(assert (= "2" (CharAt var37 310)))
(assert (= "K" (CharAt var2 266)))
(assert (= "i" (CharAt var58 921)))
(assert (= "z" (CharAt var41 829)))
(assert (= "I" (CharAt var44 615)))
(assert (= "o" (CharAt var25 438)))
(assert (= "_" (CharAt var7 953)))
(assert (= "U" (CharAt var7 720)))
(assert (= "3" (CharAt var44 451)))
(assert (= "R" (CharAt var24 846)))
(assert (= "G" (CharAt var5 624)))
(assert (= "i" (CharAt var10 611)))
(assert (= "*" (CharAt var15 198)))
(assert (= ":" (CharAt var58 257)))
(assert (= "L" (CharAt var49 7)))
(assert (= "s" (CharAt var15 835)))
(assert (= "-" (CharAt var38 902)))
(assert (= ">" (CharAt var29 845)))
(assert (= "1" (CharAt var54 50)))
(assert (= "Y" (CharAt var13 507)))
(assert (= "n" (CharAt var10 126)))
(assert (= "0" (CharAt var16 734)))
(assert (= "," (CharAt var34 545)))
(assert (= "Z" (CharAt var37 454)))
(assert (= "q" (CharAt var52 536)))
(assert (= "A" (CharAt var58 536)))
(assert (= "|" (CharAt var33 289)))
(assert (= "K" (CharAt var5 567)))
(assert (= "M" (CharAt var47 278)))
(assert (= "m" (CharAt var55 751)))
(assert (= "J" (CharAt var9 577)))
(assert (= "\"" (CharAt var55 47)))
(assert (= "D" (CharAt var28 835)))
(assert (= ";" (CharAt var40 560)))
(assert (= "M" (CharAt var1 494)))
(assert (= "&" (CharAt var9 850)))
(assert (= "I" (CharAt var24 782)))
(assert (= "z" (CharAt var16 902)))
(assert (= "X" (CharAt var55 176)))
(assert (= "b" (CharAt var3 12)))
(assert (= "/" (CharAt var19 773)))
(assert (= "$" (CharAt var39 963)))
(assert (= "i" (CharAt var32 721)))
(assert (= "L" (CharAt var30 964)))
(assert (= "V" (CharAt var19 160)))
(assert (= "v" (CharAt var27 497)))
(assert (= "&" (CharAt var45 711)))
(assert (= "{" (CharAt var10 997)))
(assert (= "r" (CharAt var31 450)))
(assert (= "-" (CharAt var46 222)))
(assert (= "+" (CharAt var36 794)))
(assert (= "0" (CharAt var19 450)))
(assert (= "x" (CharAt var30 886)))
(assert (= "t" (CharAt var16 931)))
(assert (= "o" (CharAt var42 189)))
(assert (= "D" (CharAt var5 100)))
(assert (= "|" (CharAt var1 908)))
(assert (= "g" (CharAt var40 245)))
(assert (= "{" (CharAt var33 631)))
(assert (= "{" (CharAt var1 351)))
(assert (= "C" (CharAt var9 233)))
(assert (= "`" (CharAt var3 640)))
(assert (= "a" (CharAt var11 918)))
(assert (= "(" (CharAt var8 466)))
(assert (= "9" (CharAt var45 659)))
(assert (= "%" (CharAt var39 56)))
(assert (= "Q" (CharAt var35 551)))
(assert (= "C" (CharAt var49 471)))
(assert (= "I" (CharAt var2 477)))
(assert (= "B" (CharAt var33 171)))
(assert (= "Z" (CharAt var36 463)))
(assert (= "7" (CharAt var38 900)))
(assert (= "m" (CharAt var8 897)))
(assert (= ":" (CharAt var20 119)))
(assert (= "'" (CharAt var11 756)))
(assert (= "8" (CharAt var39 843)))
(assert (= "P" (CharAt var60 433)))
(assert (= "@" (CharAt var53 485)))
(assert (= ";" (CharAt var19 843)))
(assert (= "7" (CharAt var39 570)))
(assert (= "D" (CharAt var1 666)))
(assert (= "u" (CharAt var46 256)))
(assert (= "b" (CharAt var41 304)))
(assert (= "<" (CharAt var34 860)))
(assert (= "p" (CharAt var28 998)))
(assert (= "n" (CharAt var43 315)))
(assert (= "?" (CharAt var35 309)))
(assert (= "\\" (CharAt var29 106)))
(assert (= "$" (CharAt var26 302)))
(assert (= "1" (CharAt var16 930)))
(assert (= "9" (CharAt var1 709)))
(assert (= "I" (CharAt var38 45)))
(assert (= "m" (CharAt var2 524)))
(assert (= "U" (CharAt var28 794)))
(assert (= "Y" (CharAt var45 466)))
(assert (= ")" (CharAt var47 27)))
(assert (= "{" (CharAt var46 480)))
(assert (= "e" (CharAt var6 328)))
(assert (= "u" (CharAt var29 829)))
(assert (= "=" (CharAt var12 478)))
(assert (= ":" (CharAt var18 257)))
(assert (= "\"" (CharAt var56 838)))
(assert (= "9" (CharAt var43 22)))
(assert (= "i" (CharAt var37 175)))
(assert (= ")" (CharAt var7 974)))
(assert (= ")" (CharAt var45 154)))
(assert (= "m" (CharAt var20 337)))
(assert (= "M" (CharAt var18 940)))
(assert (= "m" (CharAt var13 436)))
(assert (= "q" (CharAt var60 834)))
(assert (= "b" (CharAt var10 484)))
(assert (= "P" (CharAt var25 718)))
(assert (= "p" (CharAt var58 971)))
(assert (= "{" (CharAt var17 962)))
(assert (= ";" (CharAt var12 838)))
(assert (= "D" (CharAt var27 601)))
(assert (= "," (CharAt var55 304)))
(assert (= "M" (CharAt var32 512)))
(assert (= "2" (CharAt var28 912)))
(assert (= ">" (CharAt var26 24)))
(assert (= "~" (CharAt var60 458)))
(assert (= "]" (CharAt var60 400)))
(assert (= "S" (CharAt var45 205)))
(assert (= "q" (CharAt var36 726)))
(assert (= "-" (CharAt var37 661)))
(assert (= "6" (CharAt var42 343)))
(assert (= "|" (CharAt var47 555)))
(assert (= "z" (CharAt var6 907)))
(assert (= "(" (CharAt var18 247)))
(assert (= "Y" (CharAt var7 922)))
(assert (= "@" (CharAt var49 648)))
(assert (= "C" (CharAt var48 501)))
(assert (= "Q" (CharAt var16 363)))
(assert (= "+" (CharAt var35 312)))
(assert (= "j" (CharAt var54 169)))
(assert (= "I" (CharAt var12 399)))
(assert (= "*" (CharAt var44 752)))
(assert (= "u" (CharAt var36 893)))
(assert (= "(" (CharAt var51 563)))
(assert (= "$" (CharAt var36 65)))
(assert (= "|" (CharAt var33 646)))
(assert (= "B" (CharAt var36 904)))
(assert (= ";" (CharAt var26 861)))
(assert (= "h" (CharAt var26 729)))
(assert (= "@" (CharAt var56 938)))
(assert (= "e" (CharAt var2 543)))
(assert (= "c" (CharAt var60 897)))
(assert (= "-" (CharAt var3 633)))
(assert (= "!" (CharAt var52 843)))
(assert (= "W" (CharAt var6 27)))
(assert (= "u" (CharAt var31 844)))
(assert (= "m" (CharAt var37 399)))
(assert (= "D" (CharAt var17 43)))
(assert (= "*" (CharAt var21 253)))
(assert (= "T" (CharAt var33 410)))
(assert (= "}" (CharAt var11 788)))
(assert (= "r" (CharAt var43 960)))
(assert (= "3" (CharAt var54 315)))
(assert (= "s" (CharAt var55 542)))
(assert (= "Z" (CharAt var4 181)))
(assert (= "O" (CharAt var53 176)))
(assert (= "R" (CharAt var50 113)))
(assert (= "~" (CharAt var8 562)))
(assert (= "\"" (CharAt var46 254)))
(assert (= "n" (CharAt var1 517)))
(assert (= "{" (CharAt var48 921)))
(assert (= "Y" (CharAt var14 900)))
(assert (= "!" (CharAt var60 857)))
(assert (= ":" (CharAt var36 852)))
(assert (= "M" (CharAt var36 181)))
(assert (= "," (CharAt var49 189)))
(assert (= "B" (CharAt var0 739)))
(assert (= "(" (CharAt var29 757)))
(assert (= "'" (CharAt var33 367)))
(assert (= "8" (CharAt var25 117)))
(assert (= "q" (CharAt var2 72)))
(assert (= ">" (CharAt var11 279)))
(assert (= "/" (CharAt var39 696)))
(assert (= ">" (CharAt var36 29)))
(assert (= "h" (CharAt var32 184)))
(assert (= "j" (CharAt var58 450)))
(assert (= "=" (CharAt var7 710)))
(assert (= "." (CharAt var0 526)))
(check-sat)
(get-model)